#
# GLPK data file generated by parser.py.
#

set V := 1 2 3 4 5 6 7 8 9 10 11 12 13 14 15 16 17 18 19 20 21 22;

param d :=
   1 0
   2 1
   3 1
   4 1
   5 1
   6 1
   7 1
   8 1
   9 1
   10 1
   11 1
   12 1
   13 1
   14 1
   15 1
   16 1
   17 1
   18 1
   19 1
   20 1
   21 1
   22 1
;

param l :=
   1 21
   2 21
   3 21
   4 17
   5 21
   6 22
   7 21
   8 21
   9 21
   10 1
   11 21
   12 8
   13 21
   14 21
   15 19
   16 15
   17 21
   18 9
   19 17
   20 11
   21 18
   22 21
;

param custo :=
   1 1 1
   1 2 509
   1 3 501
   1 4 312
   1 5 1019
   1 6 736
   1 7 656
   1 8 60
   1 9 1039
   1 10 726
   1 11 2314
   1 12 479
   1 13 448
   1 14 479
   1 15 619
   1 16 150
   1 17 342
   1 18 323
   1 19 635
   1 20 604
   1 21 596
   1 22 202
   2 1 509
   2 2 1
   2 3 126
   2 4 474
   2 5 1526
   2 6 1226
   2 7 1133
   2 8 532
   2 9 1449
   2 10 1122
   2 11 2789
   2 12 958
   2 13 941
   2 14 978
   2 15 1127
   2 16 542
   2 17 246
   2 18 510
   2 19 1047
   2 20 1021
   2 21 1010
   2 22 364
   3 1 501
   3 2 126
   3 3 1
   3 4 541
   3 5 1516
   3 6 1184
   3 7 1084
   3 8 536
   3 9 1371
   3 10 1045
   3 11 2728
   3 12 913
   3 13 904
   3 14 946
   3 15 1115
   3 16 499
   3 17 321
   3 18 577
   3 19 976
   3 20 952
   3 21 941
   3 22 401
   4 1 312
   4 2 474
   4 3 541
   4 4 1
   4 5 1157
   4 6 980
   4 7 919
   4 8 271
   4 9 1333
   4 10 1029
   4 11 2553
   4 12 751
   4 13 704
   4 14 720
   4 15 783
   4 16 455
   4 17 228
   4 18 37
   4 19 936
   4 20 904
   4 21 898
   4 22 171
   5 1 1019
   5 2 1526
   5 3 1516
   5 4 1157
   5 5 1
   5 6 478
   5 7 583
   5 8 996
   5 9 858
   5 10 855
   5 11 1504
   5 12 677
   5 13 651
   5 14 600
   5 15 401
   5 16 1033
   5 17 1325
   5 18 1134
   5 19 818
   5 20 808
   5 21 820
   5 22 1179
   6 1 736
   6 2 1226
   6 3 1184
   6 4 980
   6 5 478
   6 6 1
   6 7 115
   6 8 740
   6 9 470
   6 10 379
   6 11 1581
   6 12 271
   6 13 289
   6 14 261
   6 15 308
   6 16 687
   6 17 1077
   6 18 970
   6 19 342
   6 20 336
   6 21 348
   6 22 932
   7 1 656
   7 2 1133
   7 3 1084
   7 4 919
   7 5 583
   7 6 115
   7 7 1
   7 8 667
   7 9 455
   7 10 288
   7 11 1661
   7 12 177
   7 13 216
   7 14 207
   7 15 343
   7 16 592
   7 17 997
   7 18 913
   7 19 236
   7 20 226
   7 21 237
   7 22 856
   8 1 60
   8 2 532
   8 3 536
   8 4 271
   8 5 996
   8 6 740
   8 7 667
   8 8 1
   8 9 1066
   8 10 759
   8 11 2320
   8 12 493
   8 13 454
   8 14 479
   8 15 598
   8 16 206
   8 17 341
   8 18 278
   8 19 666
   8 20 634
   8 21 628
   8 22 194
   9 1 1039
   9 2 1449
   9 3 1371
   9 4 1333
   9 5 858
   9 6 470
   9 7 455
   9 8 1066
   9 9 1
   9 10 328
   9 11 1387
   9 12 591
   9 13 650
   9 14 656
   9 15 776
   9 16 933
   9 17 1367
   9 18 1333
   9 19 408
   9 20 438
   9 21 447
   9 22 1239
   10 1 726
   10 2 1122
   10 3 1045
   10 4 1029
   10 5 855
   10 6 379
   10 7 288
   10 8 759
   10 9 328
   10 10 1
   10 11 1697
   10 12 333
   10 13 400
   10 14 427
   10 15 622
   10 16 610
   10 17 1046
   10 18 1033
   10 19 96
   10 20 128
   10 21 133
   10 22 922
   11 1 2314
   11 2 2789
   11 3 2728
   11 4 2553
   11 5 1504
   11 6 1581
   11 7 1661
   11 8 2320
   11 9 1387
   11 10 1697
   11 11 1
   11 12 1838
   11 13 1868
   11 14 1841
   11 15 1789
   11 16 2248
   11 17 2656
   11 18 2540
   11 19 1755
   11 20 1777
   11 21 1789
   11 22 2512
   12 1 479
   12 2 958
   12 3 913
   12 4 751
   12 5 677
   12 6 271
   12 7 177
   12 8 493
   12 9 591
   12 10 333
   12 11 1838
   12 12 1
   12 13 68
   12 14 105
   12 15 336
   12 16 417
   12 17 821
   12 18 748
   12 19 243
   12 20 214
   12 21 217
   12 22 680
   13 1 448
   13 2 941
   13 3 904
   13 4 704
   13 5 651
   13 6 289
   13 7 216
   13 8 454
   13 9 650
   13 10 400
   13 11 1868
   13 12 68
   13 13 1
   13 14 52
   13 15 287
   13 16 406
   13 17 789
   13 18 698
   13 19 311
   13 20 281
   13 21 283
   13 22 645
   14 1 479
   14 2 978
   14 3 946
   14 4 720
   14 5 600
   14 6 261
   14 7 207
   14 8 479
   14 9 656
   14 10 427
   14 11 1841
   14 12 105
   14 13 52
   14 14 1
   14 15 237
   14 16 449
   14 17 818
   14 18 712
   14 19 341
   14 20 314
   14 21 318
   14 22 672
   15 1 619
   15 2 1127
   15 3 1115
   15 4 783
   15 5 401
   15 6 308
   15 7 343
   15 8 598
   15 9 776
   15 10 622
   15 11 1789
   15 12 336
   15 13 287
   15 14 237
   15 15 1
   15 16 636
   15 17 932
   15 18 764
   15 19 550
   15 20 528
   15 21 535
   15 22 785
   16 1 150
   16 2 542
   16 3 499
   16 4 455
   16 5 1033
   16 6 687
   16 7 592
   16 8 206
   16 9 933
   16 10 610
   16 11 2248
   16 12 417
   16 13 406
   16 14 449
   16 15 636
   16 16 1
   16 17 436
   16 18 470
   16 19 525
   16 20 496
   16 21 486
   16 22 319
   17 1 342
   17 2 246
   17 3 321
   17 4 228
   17 5 1325
   17 6 1077
   17 7 997
   17 8 341
   17 9 1367
   17 10 1046
   17 11 2656
   17 12 821
   17 13 789
   17 14 818
   17 15 932
   17 16 436
   17 17 1
   17 18 265
   17 19 959
   17 20 930
   17 21 921
   17 22 148
   18 1 323
   18 2 510
   18 3 577
   18 4 37
   18 5 1134
   18 6 970
   18 7 913
   18 8 278
   18 9 1333
   18 10 1033
   18 11 2540
   18 12 748
   18 13 698
   18 14 712
   18 15 764
   18 16 470
   18 17 265
   18 18 1
   18 19 939
   18 20 907
   18 21 901
   18 22 201
   19 1 635
   19 2 1047
   19 3 976
   19 4 936
   19 5 818
   19 6 342
   19 7 236
   19 8 666
   19 9 408
   19 10 96
   19 11 1755
   19 12 243
   19 13 311
   19 14 341
   19 15 550
   19 16 525
   19 17 959
   19 18 939
   19 19 1
   19 20 33
   19 21 39
   19 22 833
   20 1 604
   20 2 1021
   20 3 952
   20 4 904
   20 5 808
   20 6 336
   20 7 226
   20 8 634
   20 9 438
   20 10 128
   20 11 1777
   20 12 214
   20 13 281
   20 14 314
   20 15 528
   20 16 496
   20 17 930
   20 18 907
   20 19 33
   20 20 1
   20 21 14
   20 22 803
   21 1 596
   21 2 1010
   21 3 941
   21 4 898
   21 5 820
   21 6 348
   21 7 237
   21 8 628
   21 9 447
   21 10 133
   21 11 1789
   21 12 217
   21 13 283
   21 14 318
   21 15 535
   21 16 486
   21 17 921
   21 18 901
   21 19 39
   21 20 14
   21 21 1
   21 22 794
   22 1 202
   22 2 364
   22 3 401
   22 4 171
   22 5 1179
   22 6 932
   22 7 856
   22 8 194
   22 9 1239
   22 10 922
   22 11 2512
   22 12 680
   22 13 645
   22 14 672
   22 15 785
   22 16 319
   22 17 148
   22 18 201
   22 19 833
   22 20 803
   22 21 794
   22 22 1
;

end;
